
Gurobi 13.0.0 (linux64) logging started Sun Jan 18 06:04:41 2026

Set parameter LogFile to value "../experiments/network-n_60_s_1_rp_0-app_set-id_60_25_apps/submip_40_epr1_model_gurobi.log"
Set parameter TimeLimit to value 6.8697975928000233e+02
Gurobi Optimizer version 13.0.0 build v13.0.0rc1 (linux64 - "Ubuntu 24.04.3 LTS")

CPU model: Intel(R) Core(TM) Ultra 7 165H, instruction set [SSE2|AVX|AVX2]
Thread count: 22 physical cores, 22 logical processors, using up to 22 threads

Non-default parameters:
TimeLimit  6.8697975928000233e+02
LogToConsole  0

Academic license 2539022 - for non-commercial use only - registered to al___@studenti.unimi.it
Optimize a model with 61500 rows, 9720 columns and 136617 nonzeros (Min)
Model fingerprint: 0x35d6a568
Model has 9720 linear objective coefficients
Model has 206 quadratic constraints
Variable types: 0 continuous, 9720 integer (9720 binary)
Coefficient statistics:
  Matrix range     [1e+00, 9e+02]
  QMatrix range    [5e+01, 2e+02]
  Objective range  [1e+01, 2e+02]
  Bounds range     [1e+00, 1e+00]
  RHS range        [1e+00, 1e+09]
  QRHS range       [1e+02, 6e+02]
Presolve removed 60485 rows and 7820 columns
Presolve time: 0.06s
Presolved: 16074 rows, 16759 columns, 99829 nonzeros
Variable types: 0 continuous, 16759 integer (16759 binary)
Performing another presolve...
Presolve removed 4077 rows and 4436 columns
Presolve time: 0.40s

Root relaxation: objective 6.652548e+03, 3218 iterations, 0.39 seconds (0.55 work units)

    Nodes    |    Current Node    |     Objective Bounds      |     Work
 Expl Unexpl |  Obj  Depth IntInf | Incumbent    BestBd   Gap | It/Node Time

     0     0 6652.54800    0  243          - 6652.54800      -     -    1s
     0     0 6668.15257    0  237          - 6668.15257      -     -    1s
     0     0 7423.21367    0  271          - 7423.21367      -     -    3s
     0     0 7423.91252    0  276          - 7423.91252      -     -    3s
     0     0 infeasible    0               - infeasible      -     -    3s

Cutting planes:
  Cover: 33
  Implied bound: 5
  Clique: 42
  MIR: 22
  Knapsack: 11
  StrongCG: 32
  GUB cover: 9
  Zero half: 16
  RLT: 101
  Relax-and-lift: 4
  BQP: 18

Explored 1 nodes (7753 simplex iterations) in 3.41 seconds (3.05 work units)
Thread count was 22 (of 22 available processors)

Solution count 0

Model is infeasible
Best objective -, best bound -, gap -

User-callback calls 658, time in user-callback 0.00 sec
